WARNING: for repeatability, setting FPU to use double precision
============================[ Problem Statistics ]=============================
|                                                                             |
|  Number of variables:            50                                         |
|  Number of clauses:             218                                         |
|  Parse time:                   0.00 s                                       |
|                                                                             |
============================[ Search Statistics ]==============================
| Conflicts |          ORIGINAL         |          LEARNT          | Progress |
|           |    Vars  Clauses Literals |    Limit  Clauses Lit/Cl |          |
===============================================================================
===============================================================================
restarts              : 1
conflicts             : 61             (40912 /sec)
decisions             : 71             (0.00 % random) (47619 /sec)
propagations          : 919            (616365 /sec)
conflict literals     : 233            (12.41 % deleted)
Memory used           : 20.00 MB
CPU time              : 0.001491 s

SATISFIABLE
